c ! encoding i-pc 250
p cnf 611 1491
-251 0
129 -252 0
36 -253 0
15 -254 0
205 -255 0
178 -255 0
256 0
257 -258 0
258 -259 0
-178 -259 0
255 259 -260 0
164 -262 0
261 -262 0
262 -263 0
39 -263 0
264 -265 0
265 -266 0
155 -266 0
164 -267 0
-155 -267 0
266 267 -268 0
268 -269 0
-39 -269 0
263 269 -270 0
270 -271 0
174 -271 0
164 -272 0
39 -272 0
264 -273 0
273 -274 0
-39 -274 0
272 274 -275 0
275 -276 0
261 -276 0
276 -277 0
-174 -277 0
271 277 -278 0
53 -279 0
279 -281 0
280 -281 0
281 -282 0
134 -282 0
283 -284 0
284 -285 0
107 -285 0
53 -286 0
-107 -286 0
285 286 -287 0
287 -288 0
223 -288 0
-53 -289 0
107 -289 0
289 -290 0
-223 -290 0
288 290 -291 0
291 -292 0
-134 -292 0
282 292 -293 0
187 -294 0
295 -296 0
296 -297 0
-187 -297 0
294 297 -298 0
16 -299 0
37 -299 0
-84 -299 0
104 -299 0
-185 -299 0
199 -299 0
207 -299 0
232 -299 0
241 -299 0
260 -301 0
278 -301 0
293 -301 0
298 -301 0
299 -301 0
300 -301 0
301 -302 0
148 -302 0
-81 -303 0
-104 -303 0
-178 -303 0
185 -303 0
303 -305 0
304 -305 0
305 -306 0
121 -306 0
84 -307 0
81 -307 0
304 -308 0
308 -309 0
-81 -309 0
307 309 -310 0
-104 -311 0
-178 -311 0
311 -312 0
185 -312 0
313 -315 0
314 -315 0
315 -316 0
-185 -316 0
312 316 -317 0
310 -318 0
317 -318 0
318 -319 0
-121 -319 0
306 319 -320 0
298 -321 0
207 -321 0
187 -322 0
322 -323 0
-207 -323 0
321 323 -324 0
-16 -325 0
-37 -325 0
155 -325 0
-199 -325 0
223 -325 0
-232 -325 0
-241 -325 0
326 -328 0
327 -328 0
320 -329 0
275 -329 0
324 -329 0
287 -329 0
325 -329 0
328 -329 0
329 -330 0
257 -330 0
330 -331 0
-148 -331 0
302 331 -332 0
19 -333 0
-48 -333 0
-61 -333 0
-87 -333 0
101 -333 0
-103 -333 0
113 -333 0
118 -333 0
143 -333 0
168 -333 0
179 -333 0
204 -333 0
-215 -333 0
218 -333 0
219 -333 0
-236 -333 0
332 -334 0
333 -334 0
334 -335 0
21 -335 0
19 -336 0
101 -336 0
-103 -336 0
168 -336 0
179 -336 0
218 -336 0
219 -336 0
-236 -336 0
278 -337 0
336 -337 0
337 -338 0
118 -338 0
-19 -339 0
-39 -339 0
-101 -339 0
-164 -339 0
-168 -339 0
-174 -339 0
-179 -339 0
-218 -339 0
-219 -339 0
236 -339 0
340 -341 0
261 -341 0
339 -342 0
341 -342 0
342 -343 0
-118 -343 0
338 343 -344 0
37 -345 0
-84 -345 0
199 -345 0
207 -345 0
344 -346 0
293 -346 0
298 -346 0
345 -346 0
346 -347 0
148 -347 0
-19 -348 0
-37 -348 0
-39 -348 0
-101 -348 0
-118 -348 0
-164 -348 0
-168 -348 0
-174 -348 0
-179 -348 0
-218 -348 0
-219 -348 0
223 -348 0
236 -348 0
326 -350 0
340 -350 0
349 -350 0
261 -350 0
324 -351 0
287 -351 0
348 -351 0
350 -351 0
351 -352 0
304 -352 0
352 -353 0
-148 -353 0
347 353 -354 0
354 -355 0
-61 -355 0
355 -356 0
204 -356 0
251 -358 0
358 -359 0
356 359 -360 0
360 -361 0
-81 -361 0
361 -362 0
121 -362 0
19 -363 0
-103 -363 0
118 -363 0
168 -363 0
179 -363 0
218 -363 0
219 -363 0
-236 -363 0
278 -364 0
363 -364 0
364 -365 0
101 -365 0
155 -366 0
174 -366 0
261 -367 0
367 -368 0
-174 -368 0
366 368 -369 0
-19 -370 0
-39 -370 0
-118 -370 0
-164 -370 0
-168 -370 0
-179 -370 0
-218 -370 0
-219 -370 0
236 -370 0
369 -371 0
370 -371 0
371 -372 0
340 -372 0
372 -373 0
-101 -373 0
365 373 -374 0
37 -375 0
-84 -375 0
199 -375 0
207 -375 0
374 -376 0
293 -376 0
298 -376 0
375 -376 0
376 -377 0
148 -377 0
-19 -378 0
-37 -378 0
-39 -378 0
-101 -378 0
-118 -378 0
-164 -378 0
-168 -378 0
-179 -378 0
-218 -378 0
-219 -378 0
223 -378 0
236 -378 0
326 -379 0
340 -379 0
349 -379 0
310 -380 0
369 -380 0
324 -380 0
287 -380 0
378 -380 0
379 -380 0
380 -381 0
-148 -381 0
377 381 -382 0
382 -383 0
-61 -383 0
383 -384 0
204 -384 0
298 -385 0
293 -385 0
375 -385 0
385 -386 0
148 -386 0
-37 -387 0
223 -387 0
310 -388 0
324 -388 0
287 -388 0
387 -388 0
326 -388 0
388 -389 0
349 -389 0
389 -390 0
-148 -390 0
386 390 -391 0
-19 -392 0
-39 -392 0
-101 -392 0
-118 -392 0
155 -392 0
-164 -392 0
-168 -392 0
174 -392 0
-179 -392 0
-218 -392 0
-219 -392 0
236 -392 0
391 -393 0
392 -393 0
340 -393 0
393 -394 0
357 -394 0
394 -395 0
-204 -395 0
384 395 -396 0
396 -397 0
-121 -397 0
362 397 -398 0
16 -399 0
104 -399 0
-185 -399 0
241 -399 0
398 -400 0
399 -400 0
400 -401 0
232 -401 0
16 -402 0
-19 -402 0
-39 -402 0
-101 -402 0
-118 -402 0
-164 -402 0
-168 -402 0
-174 -402 0
-179 -402 0
-218 -402 0
-219 -402 0
236 -402 0
340 -403 0
261 -403 0
287 -404 0
402 -404 0
403 -404 0
404 -405 0
241 -405 0
-16 -406 0
19 -406 0
-103 -406 0
118 -406 0
155 -406 0
168 -406 0
179 -406 0
218 -406 0
219 -406 0
-236 -406 0
275 -407 0
406 -407 0
327 -407 0
407 -408 0
101 -408 0
-19 -409 0
-39 -409 0
-118 -409 0
-164 -409 0
-168 -409 0
-174 -409 0
-179 -409 0
-218 -409 0
-219 -409 0
236 -409 0
409 -410 0
261 -410 0
410 -412 0
340 -412 0
411 -412 0
412 -413 0
-101 -413 0
408 413 -414 0
53 -415 0
-107 -415 0
414 -416 0
415 -416 0
416 -417 0
-241 -417 0
405 417 -418 0
-61 -419 0
-81 -419 0
-104 -419 0
185 -419 0
204 -419 0
418 -420 0
419 -420 0
304 -420 0
420 -421 0
121 -421 0
16 -422 0
-19 -422 0
-39 -422 0
-101 -422 0
-118 -422 0
-164 -422 0
-168 -422 0
-179 -422 0
-218 -422 0
-219 -422 0
236 -422 0
369 -423 0
287 -423 0
422 -423 0
340 -423 0
423 -424 0
241 -424 0
-16 -425 0
101 -425 0
-103 -425 0
118 -425 0
155 -425 0
168 -425 0
179 -425 0
218 -425 0
219 -425 0
-236 -425 0
275 -426 0
425 -426 0
327 -426 0
426 -427 0
19 -427 0
-39 -428 0
-101 -428 0
-118 -428 0
-164 -428 0
-168 -428 0
-179 -428 0
-218 -428 0
-219 -428 0
236 -428 0
340 -429 0
411 -429 0
369 -430 0
428 -430 0
429 -430 0
430 -431 0
-19 -431 0
427 431 -432 0
432 -433 0
415 -433 0
433 -434 0
-241 -434 0
424 434 -435 0
-104 -436 0
185 -436 0
314 -437 0
437 -438 0
-185 -438 0
436 438 -439 0
435 -440 0
439 -440 0
-61 -440 0
440 -441 0
204 -441 0
16 -442 0
241 -442 0
287 -443 0
442 -443 0
443 -444 0
61 -444 0
287 -445 0
241 -445 0
415 -446 0
-241 -446 0
445 446 -447 0
447 -448 0
16 -448 0
53 -449 0
-107 -449 0
-241 -449 0
449 -450 0
-16 -450 0
448 450 -451 0
451 -452 0
-61 -452 0
444 452 -453 0
-19 -454 0
-39 -454 0
-101 -454 0
104 -454 0
-118 -454 0
155 -454 0
-164 -454 0
-168 -454 0
174 -454 0
-179 -454 0
-185 -454 0
-218 -454 0
-219 -454 0
236 -454 0
453 -455 0
454 -455 0
340 -455 0
455 -456 0
-204 -456 0
441 456 -457 0
457 -458 0
310 -458 0
458 -459 0
-121 -459 0
421 459 -460 0
-37 -461 0
-148 -461 0
-199 -461 0
223 -461 0
460 -462 0
324 -462 0
461 -462 0
326 -462 0
462 -463 0
-232 -463 0
401 463 -464 0
48 -465 0
87 -465 0
-113 -465 0
-143 -465 0
-178 -465 0
215 -465 0
464 -466 0
465 -466 0
257 -466 0
466 -467 0
-21 -467 0
335 467 -468 0
-52 -469 0
212 -469 0
468 -470 0
469 -470 0
470 -471 0
137 -471 0
-52 -472 0
53 -472 0
212 -472 0
472 -473 0
280 -473 0
473 -474 0
134 -474 0
-212 -475 0
52 -475 0
476 -477 0
477 -478 0
-52 -478 0
475 478 -479 0
479 -480 0
291 -480 0
480 -481 0
-134 -481 0
474 481 -482 0
16 -483 0
37 -483 0
-84 -483 0
104 -483 0
-185 -483 0
199 -483 0
207 -483 0
232 -483 0
241 -483 0
260 -484 0
482 -484 0
298 -484 0
483 -484 0
261 -484 0
484 -485 0
148 -485 0
-134 -486 0
-212 -486 0
486 -487 0
52 -487 0
212 -488 0
134 -488 0
476 -489 0
489 -490 0
-134 -490 0
488 490 -491 0
491 -492 0
-52 -492 0
487 492 -493 0
-16 -494 0
-37 -494 0
-104 -494 0
155 -494 0
-178 -494 0
185 -494 0
-199 -494 0
223 -494 0
-232 -494 0
-241 -494 0
493 -495 0
324 -495 0
287 -495 0
494 -495 0
495 -496 0
304 -496 0
257 -496 0
496 -497 0
-148 -497 0
485 497 -498 0
498 -499 0
-81 -499 0
499 -500 0
121 -500 0
53 -501 0
212 -501 0
501 -502 0
280 -502 0
502 -503 0
134 -503 0
291 -504 0
476 -504 0
504 -505 0
-134 -505 0
503 505 -506 0
260 -507 0
506 -507 0
298 -507 0
299 -507 0
261 -507 0
507 -508 0
148 -508 0
310 -509 0
317 -509 0
491 -509 0
324 -509 0
287 -509 0
325 -509 0
509 -510 0
257 -510 0
510 -511 0
-148 -511 0
508 511 -512 0
512 -513 0
-52 -513 0
513 -514 0
-121 -514 0
500 514 -515 0
19 -516 0
-48 -516 0
-87 -516 0
101 -516 0
-103 -516 0
113 -516 0
118 -516 0
143 -516 0
168 -516 0
179 -516 0
-215 -516 0
218 -516 0
219 -516 0
-236 -516 0
515 -517 0
275 -517 0
516 -517 0
517 -518 0
21 -518 0
-16 -519 0
19 -519 0
53 -519 0
-103 -519 0
-107 -519 0
118 -519 0
155 -519 0
168 -519 0
179 -519 0
218 -519 0
219 -519 0
-236 -519 0
-241 -519 0
275 -520 0
519 -520 0
520 -521 0
101 -521 0
451 -522 0
370 -522 0
261 -522 0
522 -523 0
340 -523 0
523 -524 0
-101 -524 0
521 524 -525 0
-81 -526 0
121 -526 0
-134 -526 0
-212 -526 0
526 -527 0
304 -527 0
527 -528 0
52 -528 0
-81 -529 0
304 -529 0
529 -530 0
121 -530 0
310 -531 0
-121 -531 0
530 531 -532 0
491 -533 0
532 -533 0
533 -534 0
-52 -534 0
528 534 -535 0
-37 -536 0
48 -536 0
87 -536 0
-104 -536 0
-113 -536 0
-143 -536 0
-148 -536 0
-178 -536 0
185 -536 0
-199 -536 0
215 -536 0
223 -536 0
-232 -536 0
525 -537 0
324 -537 0
535 -537 0
536 -537 0
257 -537 0
537 -538 0
-21 -538 0
518 538 -539 0
-61 -540 0
-174 -540 0
204 -540 0
539 -541 0
540 -541 0
541 -542 0
-137 -542 0
543 -544 0
45 -545 0
21 -546 0
-48 -546 0
113 -546 0
-215 -546 0
546 -548 0
547 -548 0
548 -549 0
143 -549 0
-48 -550 0
113 -550 0
-215 -550 0
550 -551 0
21 -551 0
48 -552 0
-113 -552 0
215 -552 0
552 -553 0
-21 -553 0
551 553 -554 0
554 -555 0
87 -555 0
555 -556 0
-143 -556 0
549 556 -557 0
278 -558 0
557 -558 0
293 -558 0
469 -558 0
300 -558 0
558 -559 0
137 -559 0
300 -560 0
280 -560 0
472 -561 0
560 -561 0
561 -562 0
134 -562 0
479 -563 0
121 -563 0
-52 -564 0
476 -564 0
564 -565 0
-121 -565 0
563 565 -566 0
566 -567 0
291 -567 0
567 -568 0
-134 -568 0
562 568 -569 0
21 -570 0
-48 -570 0
113 -570 0
143 -570 0
-174 -570 0
-215 -570 0
547 -571 0
261 -571 0
569 -572 0
275 -572 0
570 -572 0
571 -572 0
572 -573 0
-137 -573 0
559 573 -574 0
16 -575 0
19 -575 0
37 -575 0
-61 -575 0
-84 -575 0
101 -575 0
-103 -575 0
104 -575 0
118 -575 0
148 -575 0
168 -575 0
-178 -575 0
179 -575 0
-185 -575 0
199 -575 0
204 -575 0
207 -575 0
218 -575 0
219 -575 0
232 -575 0
-236 -575 0
241 -575 0
257 -577 0
576 -577 0
574 -578 0
298 -578 0
575 -578 0
577 -578 0
-45 -579 0
582 -587 0
583 -587 0
584 -587 0
585 -587 0
586 -587 0
580 -588 0
587 -588 0
-15 -589 0
-36 -593 0
251 -598 0
251 -601 0
-129 -603 0
251 -608 0
-1 0
-2 0
-3 0
4 0
5 0
6 0
7 0
-8 0
9 0
11 0
12 0
-13 0
14 0
-17 0
-18 0
-20 0
22 0
23 0
24 0
25 0
26 0
-27 0
-28 0
-29 0
-30 0
-31 0
-32 0
33 0
-34 0
35 0
38 0
40 0
43 0
44 0
-46 0
-47 0
-49 0
50 0
51 0
-54 0
55 0
56 0
-57 0
-58 0
59 0
60 0
62 0
-63 0
64 0
-65 0
-66 0
-67 0
-68 0
69 0
70 0
-71 0
72 0
73 0
74 0
-75 0
76 0
-77 0
-78 0
79 0
-80 0
82 0
-83 0
-85 0
86 0
-88 0
90 0
-91 0
92 0
93 0
94 0
-95 0
96 0
-97 0
98 0
99 0
100 0
102 0
105 0
106 0
108 0
109 0
110 0
111 0
112 0
-114 0
-115 0
-116 0
117 0
119 0
-120 0
122 0
-123 0
124 0
125 0
-126 0
-127 0
-128 0
-130 0
131 0
-132 0
-135 0
136 0
-138 0
-139 0
140 0
-141 0
142 0
144 0
-145 0
-146 0
147 0
-149 0
150 0
151 0
-152 0
-153 0
156 0
-157 0
-158 0
-160 0
161 0
162 0
-163 0
165 0
-166 0
-167 0
-169 0
-171 0
-172 0
173 0
175 0
176 0
177 0
-180 0
181 0
182 0
-183 0
184 0
-186 0
-188 0
189 0
190 0
-191 0
-192 0
193 0
-194 0
-195 0
196 0
197 0
-198 0
200 0
201 0
-202 0
-203 0
206 0
208 0
-209 0
-210 0
-211 0
-213 0
214 0
216 0
-220 0
221 0
-224 0
-225 0
226 0
227 0
-228 0
-229 0
-230 0
-231 0
233 0
234 0
235 0
-237 0
238 0
-239 0
240 0
242 0
243 0
244 0
-245 0
246 0
247 0
-248 0
249 0
-250 0
-136 610 0
170 608 0
-604 606 0
-602 603 0
-600 602 0
-597 599 0
-596 597 0
-593 594 0
-592 593 0
-589 590 0
-588 589 0
29 605 0
-481 482 0
-424 435 0
-473 474 0
-422 423 0
-477 478 0
-421 460 0
-418 420 0
-412 413 0
-581 588 0
-335 468 0
-409 410 0
-314 315 437 0
159 601 0
-402 404 0
-566 567 0
-399 400 0
-223 279 288 325 348 378 387 461 472 494 501 536 0
-395 396 0
-391 393 0
-337 338 0
-550 551 0
217 598 0
-385 386 0
-383 384 0
-382 383 0
-19 333 336 363 406 427 516 519 575 0
-380 381 0
-379 380 0
-377 382 0
121 300 319 397 459 514 531 565 0
-541 542 0
-428 430 0
-371 372 0
-372 373 0
118 343 348 370 378 392 402 409 422 428 454 0
-535 537 0
-367 368 0
-531 532 0
-364 365 0
-361 362 0
-543 544 0
53 283 289 0
-357 358 394 0
-315 316 0
-300 301 558 560 0
-559 574 0
-353 354 0
-352 353 0
-350 351 0
-348 351 0
164 264 339 348 370 378 392 402 409 422 428 454 0
-346 347 0
-328 329 0
-453 455 0
-408 414 0
-345 346 0
-344 346 0
-370 371 522 0
81 299 303 309 361 375 419 499 526 529 575 0
-450 451 0
-390 391 0
-499 500 0
-341 342 0
137 542 573 0
-103 340 0
-441 457 0
-339 342 0
-376 377 0
-236 339 348 370 378 392 402 409 422 428 454 0
-574 578 0
-355 356 0
-386 391 0
219 339 348 370 378 392 402 409 422 428 454 0
-349 350 379 389 0
218 339 348 370 378 392 402 409 422 428 454 0
179 339 348 370 378 392 402 409 422 428 454 0
-87 465 536 547 555 0
168 339 348 370 378 392 402 409 422 428 454 0
-338 344 0
-449 450 0
-502 503 0
-389 390 0
-368 369 0
-533 534 0
-238 595 0
-417 418 0
-334 335 0
-467 468 0
-218 333 336 363 406 425 516 519 575 0
-347 354 0
-378 380 0
-143 333 516 549 570 0
-113 333 516 546 550 570 0
-260 301 484 507 0
-320 329 0
204 359 395 456 0
-101 333 336 365 408 425 516 521 575 0
87 333 516 547 0
-419 420 0
-482 484 0
-381 382 0
-420 421 0
48 333 516 546 550 570 0
-405 418 0
-207 299 321 345 375 483 575 0
-332 334 0
-416 417 0
-498 499 0
148 331 353 381 390 461 497 511 536 0
-330 331 0
-286 287 0
-283 284 0
-407 408 0
-168 333 336 363 406 425 516 519 575 0
-413 414 0
-21 335 518 546 551 570 0
-134 282 326 474 488 503 562 0
-256 258 265 273 284 296 308 315 367 437 477 489 0
-278 301 337 364 558 0
-285 287 0
-148 302 347 377 386 485 508 575 0
-277 278 0
134 292 326 481 486 490 505 526 568 0
174 277 327 339 348 368 402 409 540 570 0
-266 268 0
-276 277 0
-274 275 0
-179 333 336 363 406 425 516 519 575 0
-388 389 0
-492 493 0
-262 263 0
-321 324 0
-319 320 0
-470 471 0
-272 275 0
-546 548 0
-406 407 0
101 339 348 373 378 392 402 413 422 428 454 524 0
-326 328 350 379 388 462 0
-444 453 0
-205 255 257 0
-360 361 0
-354 355 0
-573 574 0
-269 270 0
-257 258 330 466 496 510 537 577 0
-563 566 0
-324 329 351 380 388 462 495 509 537 0
-265 266 0
107 280 286 415 449 519 0
-435 440 0
-516 517 0
-258 259 0
-280 281 473 502 560 0
-107 280 285 289 0
199 325 349 461 494 536 0
-270 271 0
-271 278 0
143 465 536 556 0
-121 300 306 362 421 500 526 530 563 0
-312 317 0
-403 404 0
-570 572 0
-284 285 0
-404 405 0
-159 600 0
-517 518 0
104 303 311 314 419 436 494 536 0
-305 306 0
-219 333 336 363 406 425 516 519 575 0
-289 290 0
-263 270 0
-61 357 444 0
-281 282 0
-178 255 313 0
241 325 417 434 446 449 494 519 0
236 333 336 363 406 425 516 519 575 0
-306 320 0
-366 369 0
-534 535 0
-429 430 0
-532 533 0
215 333 516 546 550 570 0
-327 328 407 426 0
-509 510 0
-288 291 0
-275 276 329 407 426 517 520 572 0
-356 360 0
178 259 303 311 313 465 494 536 575 0
-518 539 0
-387 388 0
-164 262 264 267 272 0
-261 262 276 341 350 367 403 410 484 507 522 571 0
-414 416 0
-351 352 0
155 261 267 0
-430 431 0
-333 334 0
-462 463 0
-536 537 0
-268 269 0
-39 263 272 0
187 297 0
-287 288 329 351 380 388 404 423 443 445 495 509 0
-440 441 0
-506 507 0
-292 293 0
-551 554 0
-290 291 0
19 339 348 370 378 392 402 409 422 431 454 0
-505 506 0
-282 293 0
-384 396 0
-552 553 0
-340 341 350 372 379 393 403 412 423 429 455 523 0
16 325 406 411 425 450 494 519 0
-425 426 0
-291 292 480 504 567 0
-503 506 0
-41 295 0
-295 296 0
-590 592 0
-363 364 0
-299 301 507 0
-293 301 346 376 385 558 0
-565 566 0
-137 471 559 0
-16 299 399 402 411 422 442 448 483 575 0
-185 303 312 419 436 494 536 0
-302 332 0
-104 299 314 399 454 483 575 0
-259 260 0
207 323 0
-279 281 0
39 269 274 339 348 370 378 392 402 409 422 428 454 0
-567 568 0
-610 611 0
84 299 304 345 375 483 575 0
-594 596 0
-37 299 345 375 483 575 0
-199 299 345 349 375 483 575 0
-394 395 0
185 299 316 399 438 454 483 575 0
-446 447 0
-273 274 0
103 333 336 340 363 406 425 516 519 575 0
-455 456 0
-461 462 0
-369 371 380 423 430 0
-528 535 0
-410 412 0
-458 459 0
-81 307 0
-232 299 401 483 575 0
58 591 0
-241 299 399 405 424 442 445 483 575 0
205 257 0
-264 265 273 0
-170 607 0
-323 324 0
-415 416 433 446 0
-304 305 308 352 420 496 527 529 0
-396 397 0
-296 297 0
223 290 0
-510 511 0
-155 261 266 325 366 392 406 425 454 494 519 0
-307 310 0
-514 515 0
-560 561 0
-322 323 0
-468 470 0
-578 579 0
-308 309 0
-500 515 0
-513 514 0
-301 302 0
-400 401 0
-294 298 0
-362 398 0
-508 512 0
-411 412 429 0
-309 310 0
-313 315 0
232 325 463 494 536 0
-515 517 0
-561 562 0
-310 318 380 388 458 509 531 0
-564 565 0
-267 268 0
-118 333 338 363 406 425 516 519 575 0
-316 317 0
-317 318 509 0
-393 394 0
-431 432 0
-433 434 0
-434 435 0
-436 439 0
-437 438 0
-438 439 0
-442 443 0
-445 447 0
-447 448 0
-303 305 0
-342 343 0
-451 452 522 0
-452 453 0
-454 455 0
-343 344 0
-456 457 0
-457 458 0
-459 460 0
-460 462 0
-464 466 0
-562 569 0
-423 424 0
-48 465 536 552 0
113 465 536 552 0
-540 541 0
-215 465 536 552 0
-466 467 0
21 467 538 553 0
-577 578 0
-427 432 0
52 469 472 478 492 513 534 564 0
-174 271 327 366 392 454 0
-471 543 0
-375 376 385 0
-472 473 561 0
-474 482 0
-52 475 487 528 0
-607 609 0
212 475 476 486 526 0
-475 479 0
-204 333 356 384 419 441 540 575 0
-476 477 489 504 564 0
-478 479 0
37 325 348 378 387 461 494 536 0
-479 480 563 0
-480 481 0
-483 484 0
-526 527 0
-484 485 0
-485 498 0
-439 440 0
-575 578 0
-486 487 0
-84 304 307 0
-487 493 0
-212 469 472 476 488 501 0
-488 491 0
-489 490 0
-490 491 0
-491 492 509 533 0
-494 495 0
-495 496 0
-496 497 0
-497 498 0
-501 502 0
-504 505 0
-507 508 0
-297 298 0
-397 398 0
-511 512 0
-298 301 321 346 376 385 484 507 578 0
-398 400 0
-512 513 0
-519 520 0
-311 312 0
-521 525 0
-463 464 0
-569 572 0
-522 523 0
-523 524 0
-255 260 0
-524 525 0
-525 537 0
-527 528 0
-529 530 0
-530 532 0
-374 376 0
-537 538 0
-538 539 0
-426 427 0
-539 541 0
-542 543 0
154 544 576 0
-544 545 0
-318 319 0
-336 337 0
-448 451 0
-547 548 571 0
-187 294 322 0
-548 549 0
-549 557 0
-553 554 0
-465 466 0
-554 555 0
-555 556 0
-556 557 0
-557 558 0
-558 559 0
-401 464 0
-568 569 0
-571 572 0
-572 573 0
-154 576 0
-576 577 0
-469 470 558 0
-373 374 0
-329 330 0
-331 332 0
-365 374 0
-432 433 0
-443 444 0
-603 604 0
-493 495 0
-392 393 0
-325 329 509 0
-520 521 0
158 581 0
